(set-info :smt-lib-version 2.6)
(set-logic QF_FP)
(set-option :produce-models true)
(set-info :source |Random FP created by PyMPF|)
(set-info :license |https://www.gnu.org/licenses/gpl-3.0.html|)
(set-info :category random)
(set-info :status sat)
(declare-const x Float32)
(assert (= x (fp #b1 #b00000001 #b00000000000000000000000)))
;; x should be Float32(0x80800000 [Rational(-1, 85070591730234615865843651857942052864), -0.000000])

(declare-const y Float32)
(assert (= y (fp #b0 #b10100100 #b01101000100001110000010)))
;; y should be Float32(0x52344382 [Rational(193556676608), 193556676608.000000])

(declare-const z Float32)
(assert (= z (fp #b1 #b11110001 #b10100001001000100101011)))
;; z should be Float32(0xF8D0912B [Rational(-33841940711836304759760378447003648), -33841940711836304759760378447003648.000000])

(declare-const result Float32)
(assert (= result (fp.fma RNE x y z)))
(assert (= result (fp #b1 #b11110001 #b10100001001000100101011)))
(check-sat)
(exit)
